############################## T =  5
Academic license - for non-commercial use only
Changed value of parameter lazyConstraints to 1
   Prev: 0  Min: 0  Max: 1  Default: 0
Optimize a model with 3957 rows, 95 columns and 14230 nonzeros
Model has 728 quadratic objective terms
Variable types: 0 continuous, 95 integer (95 binary)
Coefficient statistics:
  Matrix range     [1e+00, 1e+00]
  Objective range  [0e+00, 0e+00]
  QObjective range [4e+01, 3e+04]
  Bounds range     [1e+00, 1e+00]
  RHS range        [1e+00, 2e+00]
Presolve removed 514 rows and 10 columns
Presolve time: 0.02s
Presolved: 4171 rows, 813 columns, 13734 nonzeros
Variable types: 0 continuous, 813 integer (813 binary)

Root relaxation: objective 0.000000e+00, 14 iterations, 0.01 seconds

    Nodes    |    Current Node    |     Objective Bounds      |     Work
 Expl Unexpl |  Obj  Depth IntInf | Incumbent    BestBd   Gap | It/Node Time

     0     0    0.00000    0   10          -    0.00000      -     -    0s
     0     0    0.00000    0   10          -    0.00000      -     -    0s
     0     0    0.00000    0   10          -    0.00000      -     -    0s
     0     0    0.00000    0   10          -    0.00000      -     -    0s
     0     0    0.00000    0   13          -    0.00000      -     -    0s
     0     0    0.00000    0   10          -    0.00000      -     -    0s
     0     0    0.00000    0   10          -    0.00000      -     -    0s
     0     0    0.00000    0   13          -    0.00000      -     -    0s
     0     0    0.00000    0   13          -    0.00000      -     -    0s
     0     0    0.00000    0   13          -    0.00000      -     -    0s
     0     2    0.00000    0   13          -    0.00000      -     -    0s
H  102    75                    39842.000000    0.00000   100%  14.5    0s
*  129   100              44    36404.000000    0.00000   100%  13.7    0s
H  279   200                    32631.000000   67.00000   100%  10.6    0s
H  293   206                    27195.000000   67.00000   100%  10.6    0s
H  300   205                    26937.000000   67.00000   100%  10.5    0s
H  403   199                    18088.000000  179.00000  99.0%  10.2    1s
H  428   202                    17772.000000  179.00000  99.0%  10.1    1s
*  740   337              30    17563.000000 1046.00000  94.0%   8.3    1s
* 1987   388              41    17335.000000 1046.00000  94.0%   9.6    4s
  2174   439 1791.80000   40    8 17335.0000 1046.00000  94.0%   9.4    5s
* 2403   512              37    17200.000000 1046.00000  93.9%   9.3    5s
  7686   548 infeasible   39      17200.0000 9540.50000  44.5%   8.4   10s
* 9148     0              39    17163.000000 15217.2500  11.3%   8.0   11s

Cutting planes:
  Gomory: 2
  Flow cover: 4
  Zero half: 9

Explored 9259 nodes (73971 simplex iterations) in 11.02 seconds
Thread count was 4 (of 4 available processors)

Solution count 10: 17163 17200 17335 ... 36404

Optimal solution found (tolerance 1.00e-04)
Best objective 1.716300000000e+04, best bound 1.716300000000e+04, gap 0.0000%

Optimal cost: 17163
print out solution in ascending timestep
timestep  0 :  99127
timestep  1 :  99114
timestep  2 :  87589
timestep  3 :  89866
timestep  4 :  96058
{(0, 0): 0.0, (0, 1): 1.0, (0, 2): 1.0, (0, 3): 1.0, (0, 4): 1.0, (1, 0): 0.0, (1, 1): -0.0, (1, 2): 0.0, (1, 3): 0.0, (1, 4): 1.0, (2, 0): 0.0, (2, 1): 0.0, (2, 2): -0.0, (2, 3): 1.0, (2, 4): 1.0, (3, 0): 0.0, (3, 1): -0.0, (3, 2): 0.0, (3, 3): 0.0, (3, 4): 1.0, (4, 0): 0.0, (4, 1): 0.0, (4, 2): 1.0, (4, 3): 1.0, (4, 4): 1.0}
SOLVED AT T =  5
